jobs  (incl. supersource/sink ):	52
RESOURCES
- renewable                 : 2 R
- nonrenewable              : 4 N
- doubly constrained        : 0 D
************************************************************************
PRECEDENCE RELATIONS:
jobnr.    #modes  #successors   successors
1	1	16		2 3 4 5 6 7 8 9 10 11 13 14 16 21 23 28 
2	6	8		49 48 45 44 30 29 18 12 
3	6	12		51 50 45 43 42 32 31 27 26 25 22 19 
4	6	10		51 49 48 45 44 30 26 22 20 18 
5	6	9		50 47 46 43 30 29 25 19 15 
6	6	13		51 47 45 43 42 41 40 36 34 32 31 26 22 
7	6	12		49 48 45 44 42 41 40 39 32 31 24 20 
8	6	9		48 47 45 44 43 42 40 32 17 
9	6	12		51 50 49 48 47 44 42 41 40 39 33 25 
10	6	10		50 49 47 43 42 41 40 33 26 25 
11	6	7		46 45 44 43 37 29 18 
12	6	12		50 47 46 43 42 41 40 39 38 36 32 31 
13	6	10		51 50 47 44 42 41 40 39 37 25 
14	6	3		43 34 18 
15	6	8		49 44 42 41 40 36 35 31 
16	6	8		46 45 44 43 41 40 36 35 
17	6	5		46 41 39 37 25 
18	6	4		42 41 40 25 
19	6	6		48 44 40 39 36 35 
20	6	3		43 37 25 
21	6	2		42 26 
22	6	4		46 39 37 35 
23	6	3		38 36 31 
24	6	1		25 
25	6	3		38 36 35 
26	6	3		39 38 37 
27	6	3		41 38 36 
28	6	3		40 39 35 
29	6	2		39 35 
30	6	2		37 36 
31	6	1		37 
32	6	1		35 
33	6	1		45 
34	6	1		37 
35	6	1		52 
36	6	1		52 
37	6	1		52 
38	6	1		52 
39	6	1		52 
40	6	1		52 
41	6	1		52 
42	6	1		52 
43	6	1		52 
44	6	1		52 
45	6	1		52 
46	6	1		52 
47	6	1		52 
48	6	1		52 
49	6	1		52 
50	6	1		52 
51	6	1		52 
52	1	0		
************************************************************************
REQUESTS/DURATIONS
jobnr.	mode	dur	R1	R2	N1	N2	N3	N4	
------------------------------------------------------------------------
1	1	0	0	0	0	0	0	0	
2	1	6	3	4	13	16	20	18	
	2	8	2	4	9	13	18	18	
	3	16	2	3	7	11	14	18	
	4	18	2	3	7	10	14	17	
	5	19	2	1	5	9	10	16	
	6	20	2	1	3	5	10	16	
3	1	4	3	4	5	20	14	14	
	2	5	2	4	5	19	14	12	
	3	6	2	4	5	19	14	11	
	4	10	2	4	4	18	13	7	
	5	16	2	4	4	18	13	6	
	6	17	2	4	4	17	12	5	
4	1	2	1	4	15	4	11	15	
	2	3	1	3	15	4	11	14	
	3	7	1	3	15	4	10	14	
	4	10	1	2	14	4	9	13	
	5	17	1	2	14	4	7	11	
	6	18	1	1	13	4	7	11	
5	1	1	3	2	15	16	8	7	
	2	2	2	1	15	16	8	6	
	3	3	2	1	15	14	6	6	
	4	5	2	1	14	13	5	6	
	5	10	1	1	14	12	5	5	
	6	12	1	1	14	12	3	5	
6	1	5	5	3	20	5	14	9	
	2	9	5	2	16	4	13	8	
	3	13	5	2	15	4	13	8	
	4	14	5	1	12	4	13	7	
	5	15	5	1	11	3	11	6	
	6	16	5	1	8	2	11	6	
7	1	12	4	2	14	13	10	10	
	2	13	4	2	13	13	8	10	
	3	16	4	2	12	11	7	10	
	4	17	4	2	9	10	6	10	
	5	18	4	2	7	6	5	10	
	6	20	4	2	4	6	5	10	
8	1	1	1	5	13	20	11	18	
	2	5	1	5	13	19	11	13	
	3	8	1	5	10	19	11	12	
	4	13	1	5	8	18	11	11	
	5	15	1	5	8	18	11	7	
	6	16	1	5	6	18	11	6	
9	1	2	3	3	14	20	13	16	
	2	3	3	2	13	17	13	14	
	3	6	2	2	11	17	13	10	
	4	8	2	1	10	15	12	10	
	5	9	2	1	6	12	12	8	
	6	15	1	1	5	12	12	6	
10	1	1	5	4	19	16	15	12	
	2	6	4	4	14	15	12	10	
	3	7	3	4	13	14	11	10	
	4	9	3	4	9	13	10	9	
	5	11	3	3	5	12	10	7	
	6	12	2	3	1	11	8	7	
11	1	2	3	5	15	12	12	20	
	2	4	3	4	13	11	9	19	
	3	8	3	4	12	9	9	18	
	4	16	3	4	12	7	6	16	
	5	18	3	4	8	6	5	15	
	6	19	3	4	7	4	4	15	
12	1	1	4	4	7	6	13	18	
	2	2	4	3	6	5	13	12	
	3	3	4	3	6	5	13	9	
	4	5	3	3	5	4	12	6	
	5	12	3	3	5	3	11	6	
	6	20	3	3	4	2	11	1	
13	1	1	1	1	13	16	12	13	
	2	2	1	1	12	13	11	11	
	3	3	1	1	12	12	10	10	
	4	10	1	1	12	9	10	9	
	5	14	1	1	12	8	10	8	
	6	17	1	1	12	6	9	8	
14	1	4	3	3	18	18	16	15	
	2	9	3	3	17	17	16	14	
	3	10	3	3	16	13	16	12	
	4	14	3	3	16	13	16	11	
	5	18	3	3	14	9	16	10	
	6	19	3	3	13	7	16	10	
15	1	2	4	4	13	13	9	11	
	2	6	4	3	12	11	9	10	
	3	7	4	3	11	10	9	9	
	4	12	4	2	8	9	8	9	
	5	16	4	1	7	8	8	9	
	6	17	4	1	6	8	8	8	
16	1	2	4	2	8	8	7	19	
	2	3	3	2	8	6	6	19	
	3	5	3	2	8	4	5	18	
	4	9	2	2	8	4	4	18	
	5	12	2	1	8	3	2	18	
	6	18	2	1	8	1	1	17	
17	1	3	4	5	8	12	20	17	
	2	5	4	4	7	11	17	14	
	3	6	3	4	7	11	15	14	
	4	7	3	3	7	10	10	11	
	5	14	2	3	7	8	10	11	
	6	17	2	3	7	8	6	10	
18	1	2	5	4	13	11	16	15	
	2	6	4	3	13	11	15	13	
	3	7	3	2	12	11	14	11	
	4	8	2	2	10	11	13	11	
	5	15	2	1	9	11	12	9	
	6	20	1	1	9	11	12	6	
19	1	6	3	3	14	15	17	9	
	2	11	2	3	11	12	15	9	
	3	13	2	3	10	9	12	9	
	4	14	2	2	6	8	10	9	
	5	17	2	2	6	5	8	9	
	6	19	2	2	2	3	7	9	
20	1	8	5	4	20	13	13	14	
	2	9	4	4	14	11	11	14	
	3	10	3	4	11	10	10	13	
	4	14	3	4	10	8	9	10	
	5	18	3	4	7	5	6	9	
	6	19	2	4	4	5	5	9	
21	1	2	2	4	19	16	5	14	
	2	3	1	4	17	16	5	11	
	3	5	1	4	17	14	5	8	
	4	6	1	4	17	13	5	7	
	5	18	1	4	16	12	5	4	
	6	19	1	4	15	11	5	4	
22	1	1	5	5	18	14	12	14	
	2	4	5	3	16	10	12	14	
	3	10	5	3	13	8	11	14	
	4	14	5	3	11	5	10	14	
	5	16	5	1	9	5	8	14	
	6	17	5	1	7	2	8	14	
23	1	1	3	2	9	10	18	16	
	2	3	3	2	6	9	16	13	
	3	9	3	2	6	7	16	12	
	4	11	2	2	5	7	15	11	
	5	12	2	1	4	5	14	8	
	6	13	2	1	3	3	14	8	
24	1	5	4	4	11	8	14	17	
	2	7	3	4	9	7	13	17	
	3	8	3	3	8	7	13	17	
	4	9	3	3	8	7	11	17	
	5	14	2	2	6	6	11	17	
	6	19	2	1	6	6	9	17	
25	1	1	3	5	1	20	17	4	
	2	5	2	4	1	17	16	3	
	3	6	2	4	1	16	16	3	
	4	8	2	4	1	15	14	3	
	5	13	2	3	1	11	13	3	
	6	16	2	3	1	10	13	3	
26	1	10	3	4	14	8	13	12	
	2	12	3	4	12	8	11	11	
	3	13	3	4	9	8	8	10	
	4	15	3	4	7	8	7	10	
	5	17	3	4	6	7	5	8	
	6	20	3	4	2	7	2	8	
27	1	6	3	4	2	12	20	17	
	2	7	3	3	2	12	19	15	
	3	13	3	3	2	12	18	14	
	4	16	3	2	2	12	17	13	
	5	17	3	2	2	12	16	11	
	6	20	3	1	2	12	16	10	
28	1	4	5	2	10	19	20	11	
	2	5	4	2	8	13	19	10	
	3	7	4	2	7	11	18	9	
	4	13	4	2	6	10	18	9	
	5	15	3	2	2	4	18	8	
	6	18	3	2	2	4	17	8	
29	1	4	4	2	16	16	14	6	
	2	5	4	1	16	15	14	6	
	3	6	3	1	16	12	12	6	
	4	9	3	1	16	11	7	6	
	5	13	1	1	16	10	5	5	
	6	19	1	1	16	8	4	5	
30	1	3	4	3	17	13	19	8	
	2	5	3	3	16	11	16	7	
	3	6	3	3	15	11	15	7	
	4	8	2	2	15	9	12	5	
	5	10	1	2	14	9	9	4	
	6	15	1	1	14	8	7	4	
31	1	1	5	1	10	4	11	6	
	2	4	4	1	8	4	9	6	
	3	6	4	1	7	3	7	5	
	4	8	4	1	6	3	6	5	
	5	9	4	1	3	1	5	3	
	6	11	4	1	1	1	2	3	
32	1	5	3	2	7	7	7	4	
	2	6	2	2	6	6	6	3	
	3	8	2	2	4	6	6	2	
	4	9	2	2	4	6	5	2	
	5	13	2	2	2	5	4	2	
	6	18	2	2	2	5	4	1	
33	1	3	4	1	11	10	11	3	
	2	6	3	1	11	8	11	2	
	3	13	3	1	11	7	10	2	
	4	16	2	1	11	5	10	1	
	5	17	1	1	10	4	9	1	
	6	20	1	1	10	1	8	1	
34	1	3	4	2	18	12	16	12	
	2	7	4	2	17	11	15	11	
	3	10	4	2	15	10	14	11	
	4	11	4	2	13	7	14	11	
	5	13	4	2	9	4	14	11	
	6	15	4	2	9	3	13	11	
35	1	1	3	2	16	12	19	8	
	2	2	3	2	15	11	16	8	
	3	3	3	2	15	8	16	7	
	4	4	3	2	14	7	12	7	
	5	6	3	1	13	4	11	5	
	6	13	3	1	13	3	9	5	
36	1	1	3	3	11	2	9	8	
	2	3	3	2	11	2	8	6	
	3	12	3	2	11	2	7	5	
	4	15	2	2	11	2	7	5	
	5	16	2	1	10	2	6	2	
	6	17	2	1	10	2	4	1	
37	1	11	1	5	6	8	18	16	
	2	12	1	4	5	7	18	15	
	3	13	1	3	5	7	18	13	
	4	14	1	3	4	7	18	11	
	5	15	1	2	3	7	18	11	
	6	16	1	2	3	7	18	10	
38	1	1	4	2	20	18	8	9	
	2	6	4	2	18	18	8	8	
	3	8	4	2	18	18	8	7	
	4	9	3	2	18	18	7	5	
	5	15	2	2	17	18	7	3	
	6	16	2	2	16	18	7	2	
39	1	1	3	3	17	15	6	16	
	2	2	3	2	16	14	4	15	
	3	3	3	2	16	14	3	13	
	4	4	3	2	15	13	2	10	
	5	16	3	2	15	11	2	7	
	6	19	3	2	14	10	1	6	
40	1	7	5	5	18	19	19	12	
	2	8	4	4	16	18	19	10	
	3	9	3	4	11	16	19	10	
	4	12	3	4	8	16	19	7	
	5	13	3	3	8	14	19	7	
	6	19	2	3	5	14	19	5	
41	1	1	4	5	4	15	8	10	
	2	9	3	4	4	15	7	10	
	3	13	3	4	4	12	7	8	
	4	15	3	3	4	11	7	6	
	5	16	3	3	4	9	6	5	
	6	20	3	3	4	7	6	4	
42	1	3	1	2	16	19	8	16	
	2	6	1	2	13	19	7	14	
	3	15	1	2	13	19	7	12	
	4	16	1	2	9	18	6	11	
	5	18	1	2	9	17	5	11	
	6	19	1	2	7	17	4	8	
43	1	1	4	5	19	16	14	1	
	2	5	3	4	18	14	12	1	
	3	6	3	4	15	13	12	1	
	4	7	2	3	13	11	12	1	
	5	8	1	3	10	9	10	1	
	6	11	1	3	10	8	10	1	
44	1	3	3	4	12	16	17	14	
	2	5	3	4	10	15	15	14	
	3	6	3	3	9	15	11	14	
	4	8	3	3	8	15	11	14	
	5	16	3	2	7	15	9	14	
	6	18	3	2	7	15	7	14	
45	1	3	4	3	7	12	18	20	
	2	5	3	2	7	10	18	19	
	3	8	3	2	5	8	18	19	
	4	10	3	2	4	6	18	19	
	5	14	3	2	3	5	18	19	
	6	16	3	2	2	4	18	19	
46	1	11	2	2	18	15	11	10	
	2	12	1	1	16	14	11	7	
	3	13	1	1	16	14	11	6	
	4	16	1	1	15	14	11	5	
	5	19	1	1	13	13	10	3	
	6	20	1	1	13	12	10	3	
47	1	7	4	4	7	8	9	19	
	2	12	4	3	7	7	7	18	
	3	13	4	3	6	7	7	18	
	4	16	3	3	6	5	5	17	
	5	18	2	3	4	5	4	17	
	6	19	2	3	4	3	2	17	
48	1	1	4	2	15	14	19	12	
	2	2	4	2	15	12	18	10	
	3	3	4	2	15	8	18	9	
	4	11	4	2	15	6	17	7	
	5	17	4	2	14	4	17	6	
	6	20	4	2	14	4	17	5	
49	1	1	3	3	16	4	17	12	
	2	6	3	3	16	4	15	10	
	3	8	3	3	16	4	14	8	
	4	9	2	2	15	3	10	8	
	5	19	2	2	15	3	8	6	
	6	20	2	2	14	2	6	3	
50	1	3	3	4	16	14	16	5	
	2	4	2	3	13	10	15	5	
	3	5	2	2	13	7	14	5	
	4	6	2	2	11	7	12	4	
	5	7	1	2	8	5	9	3	
	6	15	1	1	6	3	8	3	
51	1	5	4	5	9	1	7	18	
	2	6	4	4	7	1	6	18	
	3	8	4	3	5	1	6	18	
	4	10	4	3	5	1	5	17	
	5	15	4	3	4	1	4	17	
	6	16	4	2	2	1	2	17	
52	1	0	0	0	0	0	0	0	
************************************************************************

 RESOURCE AVAILABILITIES 
	R 1	R 2	N 1	N 2	N 3	N 4
	27	27	505	492	549	502

************************************************************************
